NAME : rnd0_50.tsp.tsp.optbc.tour
TYPE : TOUR
DIMENSION : 50
TOUR_SECTION
1
28
13
29
23
15
50
20
27
40
17
30
42
22
19
25
36
9
49
3
26
41
46
45
48
24
47
18
44
6
32
11
16
4
2
21
38
7
12
34
31
10
33
8
14
5
35
37
39
43
-1